c ---- [ banner ] ------------------------------------------------------------
c
c Kissat SAT Solver
c 
c Copyright (c) 2021-2024 Armin Biere University of Freiburg
c Copyright (c) 2019-2021 Armin Biere Johannes Kepler University Linz
c 
c Version 4.0.1 43f02cf3e992cb44653b35e5cb26f93281552ae0
c gcc (Ubuntu 13.2.0-23ubuntu4) 13.2.0 -W -Wall -O3 -DNDEBUG
c Thu Sep 12 12:27:46 CEST 2024 Linux abryzen9 6.8.0-41-generic x86_64
c
c ---- [ parsing ] -----------------------------------------------------------
c
c opened and reading DIMACS file:
c
c   /data/artifact/AMulet2.0_artifact/exp4/cnf_resyn3_64/64_64_U_SP_DT_BK_GenMul_resyn3.cnf
c
c parsed 'p cnf 25352 113528' header
c closing input after reading 2251285 bytes (2 MB)
c finished parsing after 0.02 seconds
c
c ---- [ options ] -----------------------------------------------------------
c
c --stable=0                       (different from default '1')
c
c ---- [ solving ] -----------------------------------------------------------
c
c  seconds switched rate     size/glue tier1  binary          remaining
c         MB reductions conflicts size  tier2    irredundant
c          level restarts redundant glue  trail          variables
c
c *  0.02  9 0 0 0  0 0   0   0 0.0 0 0 0 0 0% 9677 103849 25349 100%
c (  0.04 11 0 0 0  0 0   0   0 0.0 0 0 0 0 0% 9677 103849 25349 100%
c .  0.05 11 0 0 0  0 0   0   0 0.0 0 0 0 0 0% 9673 103849 25349 100%
c =  0.14 16 0 0 0  0 0   0   0 0.0 0 0 0 0 0% 9696 103849 25347 100%
c d  0.14 16 0 0 0  0 0   0   0 0.0 0 0 0 0 0% 9692 103849 25347 100%
c f  0.24 15 0 0 0  0 0   0   0 0.0 0 0 0 0 0% 14579 96173 28113 111%
c e  0.38 19 0 0 0  0 0   0   0 0.0 0 0 0 0 0% 9074 104238 19179 76%
c )  0.38 19 0 0 0  0 0   0   0 0.0 0 0 0 0 0% 9074 104238 19179 76%
c {  0.40 23 0 0 0  0 0   0   0 0.0 0 0 2 6 0% 9074 104238 19179 76%
c -  0.62 26 252 0 1 277 65 1000 759 4.3 33 8 3 12 26% 9114 104237 19179 76%
c -  0.81 26 254 0 2 400 48 2002 1455 4.1 30 7 3 11 24% 9135 104237 19179 76%
c d  0.87 26 256 0 2 430 43 2502 1871 3.8 27 7 3 11 23% 9132 104237 19170 76%
c u  0.89 26 256 0 2 430 43 2502 1559 3.8 27 7 3 11 23% 9137 104237 19170 76%
c v  0.91 26 256 0 2 430 43 2502 1360 3.8 27 7 3 11 23% 9137 104237 19170 76%
c w  0.93 26 256 0 2 430 43 2502 1359 3.8 27 7 3 11 23% 9137 104237 19170 76%
c x  0.94 26 256 0 2 430 43 2502 1359 3.8 27 7 3 11 23% 9137 104231 19170 76%
c =  1.01 26 256 0 2 430 43 2502 1359 3.8 27 7 3 11 23% 9171 104229 19153 76%
c d  1.02 26 256 0 2 430 43 2502 1358 3.8 27 7 3 11 23% 9133 104229 19152 76%
c f  1.05 26 256 0 2 430 43 2502 1358 3.8 27 7 3 11 23% 9734 103013 19758 78%
c c  1.11 22 256 0 2 430 43 2502 1357 3.8 27 7 3 11 23% 9742 102985 19754 78%
c
c  seconds   switched   rate       size/glue tier1     binary          remaining
c         MB  reductions conflicts       size  tier2      irredundant
c           level restarts    redundant    glue    trail          variables
c
c d  1.11 22 256 0 2 430 43 2502 1357 3.8 27 7 3 11 23% 9734 102985 19754 78%
c u  1.13 22 256 0 2 430 43 2502 1322 3.8 27 7 3 11 23% 9735 102985 19754 78%
c v  1.14 22 256 0 2 430 43 2502 1247 3.8 27 7 3 11 23% 9735 102985 19754 78%
c w  1.16 23 256 0 2 430 43 2502 1245 3.8 27 7 3 11 23% 9735 102985 19754 78%
c =  1.21 23 256 0 2 430 43 2502 1245 3.8 27 7 3 11 23% 10113 102985 19565 77%
c d  1.22 23 256 0 2 430 43 2502 1232 3.8 27 7 3 11 23% 9642 102985 19565 77%
c f  1.25 23 256 0 2 430 43 2502 1232 3.8 27 7 3 11 23% 9654 102966 19572 77%
c -  1.41 26 315 0 3 504 40 3419 1777 3.9 26 7 3 12 24% 9670 102966 19572 77%
c -  1.65 26 346 0 4 620 38 5151 2819 3.8 25 7 3 11 25% 9723 102966 19572 77%
c -  1.97 26 359 0 5 815 36 7151 3906 3.8 24 6 3 10 25% 9794 102966 19572 77%
c d  2.01 26 367 0 5 826 35 7705 4429 3.7 23 6 3 10 25% 9725 102966 19536 77%
c u  2.04 26 367 0 5 826 35 7705 3721 3.7 23 6 3 10 25% 9751 102966 19536 77%
c v  2.07 26 367 0 5 826 35 7705 3416 3.7 23 6 3 10 25% 9753 102966 19536 77%
c w  2.08 26 367 0 5 826 35 7705 3416 3.7 23 6 3 10 25% 9753 102966 19536 77%
c x  2.10 26 367 0 5 826 35 7705 3416 3.7 23 6 3 10 25% 9753 102758 19536 77%
c =  2.19 26 367 0 5 826 35 7705 3416 3.7 23 6 3 10 25% 10199 102758 19313 76%
c d  2.19 26 367 0 5 826 35 7705 3415 3.7 23 6 3 10 25% 9609 102758 19311 76%
c f  2.24 26 367 0 5 826 35 7705 3415 3.7 23 6 3 10 25% 9891 102335 19452 77%
c u  2.27 26 367 0 5 826 35 7705 3288 3.7 23 6 3 10 25% 9896 102335 19452 77%
c v  2.29 26 367 0 5 826 35 7705 3231 3.7 23 6 3 10 25% 9896 102335 19452 77%
c
c  seconds   switched   rate       size/glue tier1     binary          remaining
c         MB  reductions conflicts       size  tier2      irredundant
c           level restarts    redundant    glue    trail          variables
c
c w  2.30 26 367 0 5 826 35 7705 3231 3.7 23 6 3 10 25% 9896 102335 19452 77%
c x  2.33 26 367 0 5 826 35 7705 3231 3.7 23 6 3 10 25% 9896 102148 19452 77%
c =  2.41 26 367 0 5 826 35 7705 3231 3.7 23 6 3 10 25% 10214 102148 19293 76%
c d  2.42 26 367 0 5 826 35 7705 3231 3.7 23 6 3 10 25% 9737 102148 19293 76%
c t  2.44 26 367 0 5 826 35 7705 3231 3.7 23 6 3 10 25% 9659 102148 19293 76%
c f  2.47 26 367 0 5 826 35 7705 3231 3.7 23 6 3 10 25% 12489 97899 20708 82%
c -  2.97 26 350 0 6 1055 36 9387 4036 4.3 28 6 2 9 26% 12557 97899 20708 82%
c o  3.16 26 343 0 6 1154 36 10001 4628 4.2 27 6 2 9 26% 12559 97899 20708 82%
c -  3.48 26 396 0 7 1290 36 11836 5447 4.4 28 6 2 9 26% 12626 97899 20708 82%
c s  3.66 26 392 0 7 1375 36 12506 6033 4.4 30 7 2 9 26% 12644 96820 20708 82%
c e  3.73 26 392 0 7 1375 36 12506 6033 4.4 30 7 2 9 26% 12169 97010 20384 80%
c 2  3.73 26 392 0 7 1375 36 12506 6033 4.4 30 7 2 9 26% 12168 97010 20384 80%
c s  3.74 26 392 0 7 1375 36 12506 6033 4.4 30 7 2 9 26% 12169 96840 20384 80%
c e  3.74 26 392 0 7 1375 36 12506 6033 4.4 30 7 2 9 26% 12150 96851 20371 80%
c ^  3.74 26 392 0 7 1375 36 12506 6033 4.4 30 7 2 9 26% 12150 96851 20371 80%
c -  4.03 26 394 0 8 1483 35 14482 6495 4.3 28 7 2 9 26% 12239 96851 20371 80%
c c  4.38 28 385 0 8 1648 35 15784 7615 4.3 28 7 2 9 27% 12309 96737 20313 80%
c d  4.39 28 385 0 8 1648 35 15784 7597 4.3 28 7 2 9 27% 11768 96737 20066 79%
c u  4.43 28 385 0 8 1648 35 15784 6692 4.3 28 7 2 9 27% 11781 96737 20066 79%
c v  4.46 28 385 0 8 1648 35 15784 5829 4.3 28 7 2 9 27% 11782 96737 20066 79%
c
c  seconds   switched    rate        size/glue tier1    binary          remaining
c         MB  reductions   conflicts       size  tier2      irredundant
c           level  restarts     redundant    glue   trail          variables
c
c w  4.52 28 385 0 8 1648 35 15784 5824 4.3 28 7 2 9 27% 11782 96737 20066 79%
c x  4.57 28 385 0 8 1648 35 15784 5824 4.3 28 7 2 9 27% 11783 96450 20066 79%
c =  4.73 28 385 0 8 1648 35 15784 5824 4.3 28 7 2 9 27% 12065 96450 19925 79%
c d  4.73 28 385 0 8 1648 35 15784 5780 4.3 28 7 2 9 27% 11742 96450 19922 79%
c t  4.74 28 385 0 8 1648 35 15784 5780 4.3 28 7 2 9 27% 11690 96450 19922 79%
c f  4.79 28 385 0 8 1648 35 15784 5780 4.3 28 7 2 9 27% 11712 96398 19936 79%
c u  4.82 28 385 0 8 1648 35 15784 5588 4.3 28 7 2 9 27% 11716 96398 19936 79%
c v  4.84 28 385 0 8 1648 35 15784 5488 4.3 28 7 2 9 27% 11716 96398 19936 79%
c w  4.93 28 385 0 8 1648 35 15784 5452 4.3 28 7 2 9 27% 11716 96398 19936 79%
c x  4.96 28 385 0 8 1648 35 15784 5452 4.3 28 7 2 9 27% 11716 95715 19936 79%
c =  5.14 28 385 0 8 1648 35 15784 5452 4.3 28 7 2 9 27% 14410 95715 18589 73%
c d  5.14 28 385 0 8 1648 35 15784 5379 4.3 28 7 2 9 27% 10775 95715 18588 73%
c t  5.16 28 385 0 8 1648 35 15784 5379 4.3 28 7 2 9 27% 10773 95715 18588 73%
c f  5.18 28 385 0 8 1648 35 15784 5379 4.3 28 7 2 9 27% 10777 95707 18590 73%
c -  5.51 28 386 0 9 1770 35 17310 5991 4.3 28 7 2 9 27% 10817 95707 18590 73%
c o  5.86 28 367 0 9 1955 34 20005 8301 4.1 28 7 2 9 26% 10888 95707 18590 73%
c -  5.98 28 363 0 10 2026 34 20311 7663 4.2 29 7 2 8 26% 10897 95707 18590 73%
c -  6.48 28 341 0 11 2260 33 23473 9343 4.2 29 7 2 7 26% 10930 95707 18590 73%
c s  6.82 28 334 0 11 2449 34 25009 10649 4.1 31 8 2 7 26% 10981 91082 18590 73%
c e  6.89 28 334 0 11 2449 34 25009 10649 4.1 31 8 2 7 26% 9078 93744 17474 69%
c
c  seconds   switched     rate         size/glue tier1    binary         remaining
c         MB   reductions   conflicts        size  tier2     irredundant
c           level   restarts      redundant    glue   trail         variables
c
c s  6.90 28 334 0 11 2449 34 25009 10649 4.1 31 8 2 7 26% 9087 93527 17474 69%
c ^  6.90 28 334 0 11 2449 34 25009 10649 4.1 31 8 2 7 26% 9087 93527 17474 69%
c -  7.17 28 331 0 12 2606 33 26789 9902 4.2 32 8 2 7 26% 9136 93525 17474 69%
c c  7.21 28 330 0 12 2606 33 26911 9991 4.2 31 8 2 7 26% 9203 93142 17417 69%
c d  7.21 28 330 0 12 2606 33 26911 9920 4.2 31 8 2 7 26% 8994 93142 17360 68%
c u  7.24 28 330 0 12 2606 33 26911 8505 4.2 31 8 2 7 26% 9021 93142 17360 68%
c v  7.27 28 330 0 12 2606 33 26911 7587 4.2 31 8 2 7 26% 9022 93142 17360 68%
c w  7.27 28 330 0 12 2606 33 26911 7587 4.2 31 8 2 7 26% 9022 93142 17360 68%
c x  7.33 28 330 0 12 2606 33 26911 7587 4.2 31 8 2 7 26% 9022 92334 17360 68%
c =  7.51 28 330 0 12 2606 33 26911 7587 4.2 31 8 2 7 26% 12640 92302 15549 61%
c d  7.52 28 330 0 12 2606 33 26911 7423 4.2 31 8 2 7 26% 8893 92302 15546 61%
c t  7.53 28 330 0 12 2606 33 26911 7423 4.2 31 8 2 7 26% 8854 92302 15546 61%
c f  7.57 28 330 0 12 2606 33 26911 7423 4.2 31 8 2 7 26% 8874 92229 15559 61%
c c  7.61 28 330 0 12 2606 33 26911 7423 4.2 31 8 2 7 26% 8876 92213 15557 61%
c d  7.61 28 330 0 12 2606 33 26911 7423 4.2 31 8 2 7 26% 8872 92213 15557 61%
c u  7.64 28 330 0 12 2606 33 26911 6963 4.2 31 8 2 7 26% 8874 92213 15557 61%
c v  7.65 28 330 0 12 2606 33 26911 6799 4.2 31 8 2 7 26% 8874 92213 15557 61%
c x  7.73 28 330 0 12 2606 33 26911 6799 4.2 31 8 2 7 26% 8874 85340 15557 61%
c =  7.91 28 330 0 12 2606 33 26911 6799 4.2 31 8 2 7 26% 12250 85340 13869 55%
c d  7.92 28 330 0 12 2606 33 26911 6614 4.2 31 8 2 7 26% 8802 85340 13869 55%
c
c  seconds   switched     rate        size/glue tier1    binary         remaining
c         MB   reductions   conflicts       size  tier2     irredundant
c           level   restarts     redundant    glue   trail         variables
c
c t  7.93 28 330 0 12 2606 33 26911 6614 4.2 31 8 2 7 26% 8785 85340 13869 55%
c -  8.37 28 317 0 13 2874 33 30253 8549 4.1 31 8 2 7 26% 8805 85335 13869 55%
c -  8.78 28 301 0 14 3133 31 33859 10523 4.0 30 7 2 7 26% 8864 85333 13869 55%
c -  9.08 28 284 0 15 3344 30 37600 12145 3.9 29 7 2 7 26% 8893 85332 13869 55%
c o  9.38 28 274 0 15 3513 29 40055 14266 3.8 29 7 2 7 26% 8940 85332 13869 55%
c d  9.55 28 272 0 15 3605 29 41239 15142 3.8 29 7 2 7 26% 8841 85332 13810 54%
c u  9.59 28 272 0 15 3605 29 41239 12307 3.8 29 7 2 7 26% 8856 85332 13810 54%
c v  9.63 28 272 0 15 3605 29 41239 11551 3.8 29 7 2 7 26% 8856 85332 13810 54%
c w  9.66 28 272 0 15 3605 29 41239 11551 3.8 29 7 2 7 26% 8856 85332 13810 54%
c x  9.70 28 272 0 15 3605 29 41239 11551 3.8 29 7 2 7 26% 8856 77589 13810 54%
c =  9.86 28 272 0 15 3605 29 41239 11551 3.8 29 7 2 7 26% 9056 77589 13710 54%
c d  9.87 28 272 0 15 3605 29 41239 11514 3.8 29 7 2 7 26% 8840 77589 13703 54%
c t  9.88 28 272 0 15 3605 29 41239 11514 3.8 29 7 2 7 26% 8827 77589 13703 54%
c f  9.88 28 272 0 15 3605 29 41239 11514 3.8 29 7 2 7 26% 8833 77570 13706 54%
c c  9.92 28 272 0 15 3605 29 41239 11349 3.8 29 7 2 7 26% 8932 77135 13650 54%
c d  9.93 28 272 0 15 3605 29 41239 11349 3.8 29 7 2 7 26% 8820 77135 13650 54%
c u  9.95 28 272 0 15 3605 29 41239 10879 3.8 29 7 2 7 26% 8835 77135 13650 54%
c v  9.99 28 272 0 15 3605 29 41239 10152 3.8 29 7 2 7 26% 8842 77135 13650 54%
c w 10.03 28 272 0 15 3605 29 41239 10151 3.8 29 7 2 7 26% 8842 77135 13650 54%
c x 10.07 28 272 0 15 3605 29 41239 10151 3.8 29 7 2 7 26% 8842 73690 13650 54%
c
c  seconds   switched     rate         size/glue tier1    binary         remaining
c         MB   reductions   conflicts        size  tier2     irredundant
c           level   restarts      redundant    glue   trail         variables
c
c d 10.22 28 272 0 15 3605 29 41239 10133 3.8 29 7 2 7 26% 8820 73690 13639 54%
c f 10.23 28 272 0 15 3605 29 41239 10133 3.8 29 7 2 7 26% 8824 73677 13641 54%
c - 10.27 28 271 0 16 3619 29 41472 8995 3.8 28 7 2 7 26% 8829 73677 13641 54%
c - 10.44 28 263 0 17 3752 27 45474 10843 3.7 27 7 2 6 25% 8900 73677 13641 54%
c - 10.70 28 257 0 18 3937 26 49597 12648 3.6 26 7 2 6 24% 8983 73677 13641 54%
c s 11.14 28 253 0 18 4305 27 52112 14913 3.7 27 7 2 6 25% 9021 67990 13641 54%
c e 11.20 28 253 0 18 4305 27 52112 14913 3.7 27 7 2 6 25% 8520 68573 13246 52%
c 2 11.20 28 253 0 18 4305 27 52112 14913 3.7 27 7 2 6 25% 8517 68573 13246 52%
c s 11.20 28 253 0 18 4305 27 52112 14913 3.7 27 7 2 6 25% 8517 68194 13246 52%
c e 11.20 28 253 0 18 4305 27 52112 14913 3.7 27 7 2 6 25% 8517 68192 13243 52%
c ^ 11.20 28 253 0 18 4305 27 52112 14913 3.7 27 7 2 6 25% 8517 68192 13243 52%
c - 11.44 28 253 0 19 4499 27 53840 13164 3.7 27 7 2 6 25% 8555 68192 13243 52%
c - 11.83 28 244 0 20 4799 26 58199 14901 3.7 27 7 2 6 24% 8674 68192 13243 52%
c c 11.89 28 242 0 20 4831 26 58887 15471 3.6 26 7 2 6 24% 8832 66971 13076 52%
c d 11.89 28 242 0 20 4831 26 58887 15018 3.6 26 7 2 6 24% 8498 66971 13076 52%
c u 11.93 28 242 0 20 4831 26 58887 12386 3.6 26 7 2 6 24% 8541 66971 13076 52%
c v 11.97 28 242 0 20 4831 26 58887 10967 3.6 26 7 2 6 24% 8554 66971 13076 52%
c w 11.98 28 242 0 20 4831 26 58887 10943 3.6 26 7 2 6 24% 8554 66971 13076 52%
c x 12.02 28 242 0 20 4831 26 58887 10941 3.6 26 7 2 6 24% 8556 66298 13076 52%
c d 12.03 28 242 0 20 4831 26 58887 10909 3.6 26 7 2 6 24% 8512 66298 13054 51%
c
c  seconds   switched     rate         size/glue tier1    binary         remaining
c         MB   reductions   conflicts        size  tier2     irredundant
c           level   restarts      redundant    glue   trail         variables
c
c t 12.04 28 242 0 20 4831 26 58887 10909 3.6 26 7 2 6 24% 8501 66298 13054 51%
c c 12.08 28 242 0 20 4831 26 58887 10891 3.6 26 7 2 6 24% 8524 66209 13042 51%
c d 12.08 28 242 0 20 4831 26 58887 10851 3.6 26 7 2 6 24% 8500 66209 13042 51%
c u 12.11 28 242 0 20 4831 26 58887 10158 3.6 26 7 2 6 24% 8507 66209 13042 51%
c v 12.14 28 242 0 20 4831 26 58887 9880 3.6 26 7 2 6 24% 8507 66209 13042 51%
c w 12.14 28 242 0 20 4831 26 58887 9863 3.6 26 7 2 6 24% 8507 66209 13042 51%
c x 12.21 28 242 0 20 4831 26 58887 9863 3.6 26 7 2 6 24% 8507 66137 13042 51%
c = 12.37 28 242 0 20 4831 26 58887 9863 3.6 26 7 2 6 24% 8633 66137 12979 51%
c d 12.38 28 242 0 20 4831 26 58887 9629 3.6 26 7 2 6 24% 8502 66137 12978 51%
c t 12.39 28 242 0 20 4831 26 58887 9629 3.6 26 7 2 6 24% 8498 66137 12978 51%
c f 12.39 28 242 0 20 4831 26 58887 9629 3.6 26 7 2 6 24% 8496 66134 12979 51%
c - 12.89 28 236 0 21 5231 26 62671 11501 3.6 26 7 2 6 25% 8544 66134 12979 51%
c - 13.26 28 231 0 22 5539 25 67253 13718 3.5 26 7 2 6 24% 8632 66134 12979 51%
c o 13.65 28 228 0 22 5889 26 70055 16222 3.5 26 7 2 6 25% 8667 66134 12979 51%
c - 14.01 28 226 0 23 6169 26 71943 15707 3.6 27 7 2 6 25% 8678 66134 12979 51%
c - 14.66 28 220 0 24 6751 26 76739 15694 3.5 27 8 1 6 25% 8762 66132 12979 51%
c d 14.98 28 215 0 24 7003 26 79999 18110 3.5 27 8 1 6 25% 8518 66132 12835 51%
c u 15.01 28 215 0 24 7003 26 79999 16218 3.5 27 8 1 6 25% 8544 66132 12835 51%
c v 15.08 28 215 0 24 7003 26 79999 13203 3.5 27 8 1 6 25% 8553 66132 12835 51%
c w 15.22 28 215 0 24 7003 26 79999 13074 3.5 27 8 1 6 25% 8554 66132 12835 51%
c
c  seconds   switched     rate         size/glue tier1    binary         remaining
c         MB   reductions   conflicts        size  tier2     irredundant
c           level   restarts      redundant    glue   trail         variables
c
c = 15.43 28 215 0 24 7003 26 79999 13074 3.5 27 8 1 6 25% 8870 66132 12677 50%
c d 15.44 28 215 0 24 7003 26 79999 12703 3.5 27 8 1 6 25% 8493 66132 12667 50%
c t 15.44 28 215 0 24 7003 26 79999 12703 3.5 27 8 1 6 25% 8467 66132 12667 50%
c f 15.45 28 215 0 24 7003 26 79999 12703 3.5 27 8 1 6 25% 8472 66114 12669 50%
c c 15.49 28 215 0 24 7003 26 79999 12538 3.5 27 8 1 6 25% 8552 65726 12621 50%
c d 15.49 28 215 0 24 7003 26 79999 12538 3.5 27 8 1 6 25% 8456 65726 12621 50%
c u 15.51 28 215 0 24 7003 26 79999 11981 3.5 27 8 1 6 25% 8463 65726 12621 50%
c v 15.55 28 215 0 24 7003 26 79999 11161 3.5 27 8 1 6 25% 8471 65726 12621 50%
c w 15.66 28 215 0 24 7003 26 79999 11059 3.5 27 8 1 6 25% 8471 65726 12621 50%
c x 15.72 28 215 0 24 7003 26 79999 11058 3.5 27 8 1 6 25% 8472 63422 12621 50%
c = 16.05 28 215 0 24 7003 26 79999 11058 3.5 27 8 1 6 25% 8954 63198 12360 49%
c d 16.06 28 215 0 24 7003 26 79999 10666 3.5 27 8 1 6 25% 8409 63198 12360 49%
c t 16.07 28 215 0 24 7003 26 79999 10666 3.5 27 8 1 6 25% 8348 63198 12360 49%
c f 16.08 28 215 0 24 7003 26 79999 10666 3.5 27 8 1 6 25% 8354 63135 12369 49%
c i 16.21 28 214 0 24 7127 26 81230 11705 3.5 27 8 1 6 25% 8378 63135 12368 49%
c i 16.22 28 213 0 24 7143 26 81507 11939 3.5 27 8 1 6 25% 8387 63135 12367 49%
c i 16.23 28 213 0 24 7145 25 81618 12010 3.5 27 8 1 6 25% 8394 63135 12365 49%
c - 16.23 28 213 0 25 7145 25 81637 9771 3.5 27 8 1 6 25% 8383 63097 12365 49%
c i 16.25 28 213 0 25 7164 25 81796 9908 3.5 27 8 1 6 25% 8387 63097 12364 49%
c i 16.27 28 213 0 25 7183 25 81910 10011 3.5 27 8 1 6 25% 8388 63097 12362 49%
c
c  seconds   switched     rate         size/glue tier1    binary         remaining
c         MB   reductions   conflicts        size  tier2     irredundant
c           level   restarts      redundant    glue   trail         variables
c
c i 16.27 28 212 0 25 7186 25 82073 10163 3.5 27 8 1 6 25% 8390 63097 12361 49%
c i 16.31 28 212 0 25 7199 25 82536 10574 3.5 27 8 1 6 25% 8398 63097 12360 49%
c i 16.33 28 211 0 25 7209 25 82761 10775 3.5 27 8 1 6 25% 8402 63097 12359 49%
c i 16.35 28 211 0 25 7231 25 82935 10922 3.5 27 8 1 6 25% 8409 63097 12358 49%
c i 16.35 28 211 0 25 7233 25 83086 11068 3.5 26 8 1 6 25% 8410 63097 12357 49%
c i 16.36 28 211 0 25 7235 25 83134 11110 3.5 26 8 1 6 25% 8413 63097 12355 49%
c i 16.41 28 209 0 25 7294 25 83960 11823 3.5 26 8 1 6 25% 8425 63096 12354 49%
c i 16.42 28 208 0 25 7296 25 84204 12021 3.5 26 8 1 6 25% 8428 63096 12353 49%
c i 16.43 28 208 0 25 7301 25 84324 12133 3.4 26 8 1 6 25% 8428 63096 12352 49%
c i 16.45 28 208 0 25 7341 25 84506 12304 3.4 26 8 1 6 25% 8431 63096 12351 49%
c i 16.46 28 207 0 25 7348 25 84618 12410 3.4 26 8 1 6 25% 8431 63096 12349 49%
c i 16.51 28 204 0 25 7393 24 85914 13477 3.4 26 8 1 6 25% 8458 63094 12348 49%
c - 16.54 28 202 0 26 7415 24 86639 11399 3.4 26 8 1 6 25% 8432 63094 12348 49%
c i 16.56 28 201 0 26 7427 24 87383 11967 3.4 26 8 1 6 25% 8442 63093 12343 49%
c i 16.56 28 201 0 26 7444 24 87494 12047 3.4 26 8 1 6 25% 8446 63093 12342 49%
c i 16.56 28 201 0 26 7445 24 87502 12048 3.4 26 8 1 6 25% 8448 63092 12341 49%
c i 16.56 28 201 0 26 7445 24 87509 12048 3.4 26 8 1 6 25% 8450 63091 12339 49%
c i 16.56 28 201 0 26 7445 24 87524 12052 3.4 26 8 1 6 25% 8452 63091 12338 49%
c i 16.56 28 200 0 26 7445 24 87607 12088 3.4 26 8 1 6 25% 8462 63091 12336 49%
c i 16.56 28 200 0 26 7445 24 87614 12090 3.4 26 8 1 6 25% 8465 63091 12334 49%
c
c  seconds   switched     rate         size/glue tier1    binary         remaining
c         MB   reductions   conflicts        size  tier2     irredundant
c           level   restarts      redundant    glue   trail         variables
c
c } 16.56 28 200 0 26 7445 24 87616 12090 3.4 26 8 1 6 25% 8465 63091 12308 49%
c 0 16.56 28 200 0 26 7445 24 87616 12090 3.4 26 8 1 6 25% 8465 63091 12308 49%
c
c ---- [ result ] ------------------------------------------------------------
c
s UNSATISFIABLE
c
c ---- [ profiling ] ---------------------------------------------------------
c
c          11.02   66.54 %  search
c          11.02   66.54 %  focused
c           5.14   31.04 %  simplify
c           5.04   30.41 %  probe
c           2.05   12.37 %  sweep
c           1.80   10.87 %  vivify
c           0.43    2.59 %  factor
c           0.34    2.08 %  congruence
c           0.33    2.02 %  preprocess
c           0.30    1.81 %  substitute
c           0.30    1.79 %  eliminate
c           0.14    0.82 %  fastel
c           0.11    0.64 %  reduce
c           0.08    0.47 %  transitive
c           0.06    0.36 %  subsume
c           0.04    0.25 %  lucky
c           0.03    0.20 %  backbone
c           0.02    0.15 %  parse
c =============================================
c          16.56  100.00 %  total
c
c ---- [ statistics ] --------------------------------------------------------
c
c chronological:                         4099                5 %  conflicts
c conflicts:                            87616             5290.51 per second
c congruent:                              404                2 %  variables
c decisions:                          2071712               23.65 per conflict
c eliminated:                           10785               43 %  variables
c factored:                              4981               20 %  variables
c fast_eliminated:                       8934               83 %  eliminated
c fast_strengthened:                       14                5 %  per strengthened
c fast_subsumed:                           46                0 %  per subsumed
c iterations:                              25                0 %  variables
c propagations:                      79689504          4811884    per second
c reductions:                              26             3370    interval
c reordered:                                4            21904    interval
c restarts:                              7445               12    interval
c strengthened:                           266                0 %  checks
c substituted:                           7149               28 %  variables
c subsumed:                             12192                1 %  checks
c switched:                                 0                0    interval
c vivified:                             54038               13 %  checks
c
c ---- [ glue usage ] --------------------------------------------------------
c
c focused glue 1   used 98101 clauses 50.90% accumulated 50.90% tier1
c focused glue 2   used 45604 clauses 23.66% accumulated 74.57%
c focused glue 3-4 used 22763 clauses 11.81% accumulated 86.38%
c focused glue 5   used  5825 clauses  3.02% accumulated 89.40%
c focused glue 6   used  4111 clauses  2.13% accumulated 91.54% tier2
c
c ---- [ resources ] ---------------------------------------------------------
c
c maximum-resident-set-size:         29802496 bytes         28 MB
c process-time:                            17s              16.56 seconds
c
c ---- [ shutting down ] -----------------------------------------------------
c
c exit 20
